100 2213
509 850 829 1101 780 806 1140 498 914 334 126 316 588 860 716 822 872 827 597 262 674 1057 1124 1138 460 1106 1087 965 647 519 557 479 858 818 703 488 758 1137 546 1075 1117 539 862 241 965 634 805 412 877 996 593 1078 975 948 1150 698 1017 880 1101 441 1063 1102 501 248 693 1113 574 921 678 585 683 970 692 342 723 1024 509 843 765 1153 1150 1017 1028 373 718 942 710 1103 819 944 344 1043 627 904 630 719 1087 883 561 561 
152 460 434 874 379 407 963 145 544 64 9 57 205 472 313 426 488 432 212 39 275 781 926 958 123 884 842 621 252 158 183 134 470 421 301 139 355 957 176 817 910 171 475 33 620 241 406 98 494 671 209 824 637 595 990 296 708 498 874 113 794 876 147 35 292 899 195 555 278 203 283 629 291 67 320 720 152 451 362 997 989 708 727 80 315 586 308 877 422 588 68 755 235 530 238 316 843 502 186 186 
